Set parameter WLSAccessID
Set parameter WLSSecret
Set parameter LicenseID to value 2604445
Academic license 2604445 - for non-commercial use only - registered to an___@um.edu.mt
Set parameter Seed to value 23
Set parameter TimeLimit to value 14400
Gurobi Optimizer version 12.0.2 build v12.0.2rc0 (linux64 - "Ubuntu 22.04.5 LTS")

CPU model: Intel(R) Core(TM) i5-10400 CPU @ 2.90GHz, instruction set [SSE2|AVX|AVX2]
Thread count: 6 physical cores, 12 logical processors, using up to 12 threads

Non-default parameters:
TimeLimit  14400
Seed  23

Academic license 2604445 - for non-commercial use only - registered to an___@um.edu.mt
Optimize a model with 1407029 rows, 30186 columns and 2904733 nonzeros
Model fingerprint: 0xae0f6e8b
Variable types: 0 continuous, 30186 integer (23517 binary)
Coefficient statistics:
  Matrix range     [1e+00, 4e+01]
  Objective range  [2e-06, 2e-02]
  Bounds range     [1e+00, 2e+02]
  RHS range        [1e+00, 4e+01]
Presolve removed 14182 rows and 11127 columns (presolve time = 5s)...
Presolve removed 14182 rows and 11127 columns
Presolve time: 6.23s
Presolved: 1392847 rows, 19059 columns, 2847443 nonzeros
Variable types: 0 continuous, 19059 integer (13053 binary)
Deterministic concurrent LP optimizer: primal and dual simplex
Showing primal log only...


Root simplex log...

Iteration    Objective       Primal Inf.    Dual Inf.      Time
       0    1.3085499e-01   0.000000e+00   6.372958e+05     15s
Concurrent spin time: 0.00s

Solved with dual simplex

Root simplex log...

Iteration    Objective       Primal Inf.    Dual Inf.      Time
     655    2.0554732e-01   0.000000e+00   0.000000e+00     15s

Root simplex log...

Iteration    Objective       Primal Inf.    Dual Inf.      Time
     655    2.0554732e-01   0.000000e+00   0.000000e+00     15s

Use crossover to convert LP symmetric solution to basic solution...

Root crossover log...

      26 DPushes remaining with DInf 0.0000000e+00                15s

    8044 PPushes remaining with PInf 0.0000000e+00                16s
       0 PPushes remaining with PInf 0.0000000e+00                17s

  Push phase complete: Pinf 0.0000000e+00, Dinf 7.1123103e-05     17s


Root simplex log...

Iteration    Objective       Primal Inf.    Dual Inf.      Time
    8702    2.0554732e-01   0.000000e+00   7.112310e-05     17s
    8707    2.0554732e-01   0.000000e+00   0.000000e+00     18s
    8707    2.0554732e-01   0.000000e+00   0.000000e+00     18s

Root relaxation: objective 2.055473e-01, 8707 iterations, 6.27 seconds (4.20 work units)
Total elapsed time = 22.27s (DegenMoves)

    Nodes    |    Current Node    |     Objective Bounds      |     Work
 Expl Unexpl |  Obj  Depth IntInf | Incumbent    BestBd   Gap | It/Node Time

     0     0    0.20555    0  647          -    0.20555      -     -   28s
     0     0    0.20555    0  692          -    0.20555      -     -   33s
     0     0    0.20555    0  709          -    0.20555      -     -   37s
     0     0    0.20555    0  819          -    0.20555      -     -   42s
     0     0    0.20555    0  708          -    0.20555      -     -   46s
     0     0    0.20555    0  758          -    0.20555      -     -   50s
     0     0    0.20555    0  696          -    0.20555      -     -   54s
     0     0    0.20555    0  734          -    0.20555      -     -   58s
     0     0    0.20555    0  788          -    0.20555      -     -   62s
     0     0    0.20555    0  812          -    0.20555      -     -   66s
     0     0    0.20555    0  817          -    0.20555      -     -   67s
     0     0    0.20590    0 1018          -    0.20590      -     -  118s
     0     0    0.21602    0  926          -    0.21602      -     -  122s
     0     0    0.63264    0 1039          -    0.63264      -     -  126s
     0     0    0.87348    0  937          -    0.87348      -     -  128s
     0     0    0.87348    0  934          -    0.87348      -     -  142s
     0     0    0.87348    0 1084          -    0.87348      -     -  156s
     0     0    0.87348    0 1012          -    0.87348      -     -  162s
     0     0    0.87349    0  658          -    0.87349      -     -  182s
     0     0    0.87349    0  694          -    0.87349      -     -  193s
     0     0    0.87349    0 1217          -    0.87349      -     -  204s
     0     0    0.87349    0 1275          -    0.87349      -     -  211s
     0     0    0.87349    0 1446          -    0.87349      -     -  234s
     0     0    0.87349    0 1517          -    0.87349      -     -  243s
     0     0    0.87349    0  818          -    0.87349      -     -  267s
     0     0    0.87349    0  941          -    0.87349      -     -  273s
     0     0    0.87349    0 1335          -    0.87349      -     -  292s
     0     0    0.87349    0 1330          -    0.87349      -     -  304s
     0     2    0.87350    0 1330          -    0.87350      -     -  408s
     1     4    1.13650    1 1486          -    0.87350      -  1487  415s
     3     8    1.17696    2 1395          -    0.87350      -  1581  426s
     7    11    1.21745    3 1261          -    0.87350      -  1767  463s
    11    17    1.41977    4 1223          -    0.87350      -  2047  482s
    17    22    1.41978    5 1186          -    0.87350      -  2015  516s
    25    27    0.87350    7 1112          -    0.87350      -  1921  551s
    36    40    0.87350    8 1117          -    0.87350      -  1649  581s
    50    48    0.87350   11 1291          -    0.87350      -  1435  606s
    60    55 infeasible   12               -    0.87350      -  1399  635s
    74    62    0.89380   13 1159          -    0.87350      -  1333  664s
    84    69    0.87838   14 1087          -    0.87350      -  1284  686s
    96    73    0.88079   15 1152          -    0.87350      -  1208  711s
   110    79    0.90103   14 1100          -    0.87350      -  1157  734s
   122    87    1.07588   16  975          -    0.87350      -  1126  756s
   133    95    1.07589   18 1128          -    0.87350      -  1103  778s
   146   101    1.07926   18 1138          -    0.87350      -  1074  800s
   160   116    1.21745   23 1025          -    0.87350      -  1063  832s
   179   129    1.21752   22 1119          -    0.87350      -  1064  864s
   197   146    1.21752   23 1140          -    0.87350      -  1048  899s
   216   162    1.21758   24  645          -    0.87350      -  1040  933s
   238   177    1.21753   24  933          -    0.87350      -  1012  964s
   259   200    1.21745   24  767          -    0.87350      -   983  994s
   287   214    1.21752   26 1056          -    0.87350      -   940 1021s
   310   230    1.21793   27  930          -    0.87350      -   909 1047s
   335   245 infeasible   27               -    0.87350      -   872 1076s
   363   260 infeasible   30               -    0.87350      -   840 1105s
   397   280    1.27816   35  848          -    0.87350      -   797 1132s
   429   306    1.27820   37  798          -    0.87350      -   760 1161s
   463   333    1.27816   41  918          -    0.87350      -   723 1185s
   511   362    1.27819   44  788          -    0.87350      -   679 1210s
   564   389    1.27823   45 1361          -    0.87350      -   637 1239s
   606   418    1.27835   46  653          -    0.87350      -   607 1263s
   671   454    1.27825   48 1341          -    0.87350      -   563 1290s
   730   487    1.27822   50  911          -    0.87350      -   534 1317s
   783   530 infeasible   52               -    0.87350      -   513 1347s
   849   574    1.27825   56  611          -    0.87350      -   485 1374s
   934   610    1.27826   60  594          -    0.87350      -   448 1406s
   989   662    1.27826   62  651          -    0.87350      -   433 1436s
  1066   707    1.27828   65  481          -    0.87350      -   413 1468s
  1148   748    1.27835   73  513          -    0.87350      -   390 1498s
  1252   779 infeasible   75               -    0.87350      -   361 1532s
  1341   816 infeasible   83               -    0.87350      -   342 1570s
  1446   845 infeasible    6               -    0.87350      -   322 1609s
  1527   880    0.87361    6 1545          -    0.87350      -   311 1657s
  1592   908    0.87362    8 1271          -    0.87350      -   304 1705s
  1659   937 infeasible   11               -    0.87350      -   303 1751s
  1734   971    0.87365   11  934          -    0.87350      -   300 1804s
  1800   990    0.87369   14  675          -    0.87350      -   301 1858s
  1863  1020    0.87371   15  901          -    0.87350      -   303 1916s
  1902  1052    0.87380   17  796          -    0.87350      -   312 1975s
  1939  1053    1.23925  236 1330          -    0.87350      -   321 2003s
  1940  1054    1.01549   59 1330          -    0.87350      -   321 2006s
H 1940  1001                       5.0075604    0.87350  82.6%   321 2090s
H 1941   951                       4.1371150    0.87350  78.9%   320 2157s
  1942   952    1.15747   92  677    4.13712    0.87350  78.9%   320 2165s
  1943   953    0.87380   19 1055    4.13712    0.87350  78.9%   320 2191s
H 1943   905                       4.0354609    0.87350  78.4%   320 2261s
H 1943   860                       3.8938217    0.87350  77.6%   320 2261s
  1945   861    1.01561   77 1376    3.89382    0.87350  77.6%   320 2290s
  1946   862    0.87403   18  712    3.89382    0.87350  77.6%   320 2379s
  1947   862    1.01564   62 1252    3.89382    0.87350  77.6%   319 2416s
  1948   863    1.01532   21 1144    3.89382    0.87350  77.6%   319 2507s
  1949   864    0.99549   66 1210    3.89382    0.87350  77.6%   319 2555s
H 1949   820                       3.8127241    0.87350  77.1%   319 2656s
H 1949   779                       3.7923080    0.87350  77.0%   319 2656s
  1951   780    1.07604   23 1174    3.79231    0.87350  77.0%   319 2703s
H 1951   741                       3.7720648    0.87350  76.8%   319 2875s
  1953   742    0.97526  155 1586    3.77206    0.87350  76.8%   318 2939s
H 1953   705                       3.7718838    0.87350  76.8%   318 3096s
H 1953   669                       3.2253595    0.87350  72.9%   318 3096s
  1955   671    1.01615  190 2109    3.22536    0.87350  72.9%   318 3192s
H 1955   637                       3.1438033    0.87350  72.2%   318 3403s
H 1955   605                       3.1436925    0.87350  72.2%   318 3403s
H 1955   575                       3.1435192    0.87350  72.2%   318 3403s
H 1955   546                       3.1435190    0.87350  72.2%   318 3403s
  1957   547    0.99618   95 3054    3.14352    0.87350  72.2%   318 3525s
  1958   548    1.19883  182 2535    3.14352    0.87350  72.2%   318 3679s
  1959   548    0.99578   77 3458    3.14352    0.87353  72.2%   317 3791s
H 1959   520                       3.1434277    0.87353  72.2%   317 3943s
  1961   522    0.93449   23 3552    3.14343    0.87354  72.2%   317 4057s
  1962   522    0.89378   15 2959    3.14343    0.87355  72.2%   317 4282s
  1963   523    1.09634   92 3325    3.14343    0.87357  72.2%   317 4408s
H 1963   496                       3.1028462    0.87359  71.8%   317 4578s
H 1963   471                       3.1026810    0.87359  71.8%   317 4578s
  1965   472    1.01578  194 3074    3.10268    0.87361  71.8%   316 4667s
  1966   473    1.05697  123 2792    3.10268    0.87361  71.8%   316 4827s
  1967   474    0.87415   30 3355    3.10268    0.87362  71.8%   316 5007s
  1968   474    1.07650  112 2256    3.10268    0.87363  71.8%   316 5270s
  1969   475    1.01532   34 3402    3.10268    0.87364  71.8%   316 5406s
  1970   476    0.89379   17 3463    3.10268    0.87364  71.8%   316 5615s
  1971   476    1.01579   92 3421    3.10268    0.87365  71.8%   315 5746s
H 1971   452                       3.1026053    0.87367  71.8%   315 5970s
H 1971   428                       3.1025991    0.87367  71.8%   315 5970s
H 1971   406                       2.6775234    0.87367  67.4%   315 5970s
H 1971   386                       2.3738776    0.87367  63.2%   315 5971s
H 1971   366                       2.3738503    0.87367  63.2%   315 5971s
H 1971   347                       1.8884204    0.87367  53.7%   315 5971s
  1973   349    0.95500  114 4333    1.88842    0.87369  53.7%   315 6139s
  1974   349    1.07613   47 3215    1.88842    0.87370  53.7%   315 6311s
  1975   350    1.23921  244 4021    1.88842    0.87370  53.7%   315 6416s
H 1975   332                       1.8883553    0.87371  53.7%   315 6585s
  1977   333    0.99559  199 4060    1.88836    0.87372  53.7%   315 6689s
H 1977   315                       1.8883342    0.87372  53.7%   315 6822s
  1979   317    1.15767  103 3777    1.88833    0.87372  53.7%   314 6922s
H 1979   301                       1.8477623    0.87372  52.7%   314 7093s
H 1979   285                       1.7669012    0.87372  50.6%   314 7094s
H 1979   270                       1.7668191    0.87372  50.5%   314 7094s
H 1979   256                       1.5847324    0.87372  44.9%   314 7094s
H 1979   243                       1.5443021    0.87372  43.4%   314 7095s
  1981   244    0.93491   84 3203    1.54430    0.87372  43.4%   314 7213s
  1982   245    1.15731   85 3209    1.54430    0.87372  43.4%   314 7389s
  1983   245    1.07590   19 4117    1.54430    0.87372  43.4%   314 7528s
  1984   246    1.07640   88 2657    1.54430    0.87372  43.4%   313 7682s
  1985   247    1.01549   59 3200    1.54430    0.87372  43.4%   313 7818s
H 1985   233                       1.5239420    0.87372  42.7%   313 8040s
  1987   234    1.01542   27 4703    1.52394    0.87373  42.7%   313 8190s
H 1987   222                       1.5239209    0.87373  42.7%   313 8343s
H 1987   210                       1.4835452    0.87373  41.1%   313 8343s
H 1987   199                       1.4835392    0.87373  41.1%   313 8345s
H 1987   188                       1.4633282    0.87373  40.3%   313 8345s
H 1987   178                       1.4632387    0.87373  40.3%   313 8345s
  1989   179    1.07609   38 2679    1.46324    0.87375  40.3%   313 8406s
  1990   180    1.19882  206 3478    1.46324    0.87375  40.3%   312 8512s
  1991   181    1.05657  225 3559    1.46324    0.87375  40.3%   312 8654s
  1992   181    1.07627   63 4540    1.46324    0.87376  40.3%   312 8879s
  1993   182    1.27824   53 3697    1.46324    0.87376  40.3%   312 9084s
  1994   183    1.27843   73 3990    1.46324    0.87376  40.3%   312 9265s
  1995   183    0.99526   27 3517    1.46324    0.87376  40.3%   312 9387s
H 1995   173                       1.4631850    0.87376  40.3%   312 9596s
H 1995   163                       1.4427939    0.87376  39.4%   312 9597s
H 1995   154                       1.4025751    0.87376  37.7%   312 9597s
H 1995   145                       1.3419932    0.87376  34.9%   312 9597s
H 1995   137                       1.3418051    0.87376  34.9%   312 9597s
H 1995   129                       1.3416309    0.87376  34.9%   312 9598s
H 1995   122                       1.3416089    0.87376  34.9%   312 9598s
  1997   124    0.87380    9 3894    1.34161    0.87376  34.9%   311 9716s
  1998   124    0.87409   24 3808    1.34161    0.87376  34.9%   311 9874s
  1999   125    1.07599   23 3808    1.34161    0.87376  34.9%   311 9875s
  2001   128    1.05705  129 1330    1.34161    0.87376  34.9%   700 9894s
  2003   129    1.11814  172  737    1.34161    0.87376  34.9%   699 9960s
  2004   130    1.15731   62  623    1.34161    0.87376  34.9%   699 10040s
H 2004   123                       1.3415506    0.87376  34.9%   699 10048s
  2005   124    0.93485   61  983    1.34155    0.87376  34.9%   698 10058s
H 2005   118                       1.3414646    0.87376  34.9%   698 10130s
  2007   119    1.07617   36 1074    1.34146    0.87376  34.9%   698 10168s
  2008   120    1.23941  238  619    1.34146    0.87376  34.9%   697 10247s
H 2008   114                       1.3414644    0.87376  34.9%   697 10298s
  2010   115    1.15726   42  854    1.34146    0.87376  34.9%   697 10384s
  2011   116    1.07609   22 1341    1.34146    0.87376  34.9%   696 10442s
H 2011   110                       1.3412395    0.87376  34.9%   696 10583s
H 2011   104                       1.2600575    0.87376  30.7%   696 10583s
H 2011    99                       1.1185718    0.87376  21.9%   696 10583s
  2012    99    1.01549   56  709    1.11857    0.87376  21.9%   696 10641s
  2013   100    1.11857   16 1386    1.11857    0.87376  21.9%   696 10710s
H 2013    94                       1.0377959    0.87376  15.8%   696 10903s
H 2013    89                       1.0175690    0.87376  14.1%   696 10903s
H 2013    85                       1.0175665    0.87376  14.1%   696 10903s
H 2013    80                       1.0175640    0.87376  14.1%   696 10903s
  2014    81    1.01756   32 1103    1.01756    0.87376  14.1%   695 10970s
H 2014    77                       1.0174040    0.87376  14.1%   695 11154s
H 2014    73                       1.0173754    0.87376  14.1%   695 11154s
H 2014    69                       1.0173481    0.87376  14.1%   695 11154s
H 2014    65                       1.0173247    0.87376  14.1%   695 11154s
H 2014    62                       1.0173182    0.87376  14.1%   695 11154s
H 2014    59                       1.0172925    0.87376  14.1%   695 11154s
H 2014    55                       1.0172416    0.87376  14.1%   695 11154s
H 2014    52                       1.0172414    0.87376  14.1%   695 11154s
H 2014    50                       1.0171232    0.87376  14.1%   695 11209s
H 2014    47                       1.0171207    0.87376  14.1%   695 11209s
H 2015    44                       1.0170890    0.87376  14.1%   695 11549s
H 2015    42                       1.0170826    0.87376  14.1%   695 11549s
H 2015    39                       1.0170257    0.87376  14.1%   695 11549s
H 2015    37                       1.0170255    0.87376  14.1%   695 11549s
H 2015    35                       1.0169718    0.87376  14.1%   695 11549s
H 2015    33                       0.9766087    0.87376  10.5%   695 11549s
H 2015    31                       0.9764747    0.87376  10.5%   695 11549s
  2016    32    0.97647   59 2978    0.97647    0.87376  10.5%   695 11617s
  2017    33    0.97647   16 3268    0.97647    0.87376  10.5%   694 11816s
H 2017    31                       0.9764568    0.87376  10.5%   694 12017s
  2018    31    0.97646  118 3743    0.97646    0.87376  10.5%   694 12045s
H 2018    29                       0.9764543    0.87376  10.5%   694 12157s
  2019    30    0.97645  197 3147    0.97645    0.87376  10.5%   694 12185s
H 2019    28                       0.9763928    0.87376  10.5%   694 12532s
  2020    29    0.97639   38 3611    0.97639    0.87376  10.5%   693 12552s
H 2020    28                       0.9763735    0.87376  10.5%   693 12701s
H 2020    26                       0.9562981    0.87376  8.63%   693 12701s
H 2020    24                       0.9562433    0.87376  8.63%   693 12702s
  2021    24    0.95624   17 3849    0.95624    0.87376  8.63%   693 12729s
H 2021    23                       0.9562116    0.87376  8.62%   693 12947s
H 2021    21                       0.9561625    0.87376  8.62%   693 12947s
  2022    22    0.95616   24 3750    0.95616    0.87376  8.62%   693 12968s
  2023    23    0.95616  123 3898    0.95616    0.87376  8.62%   692 13118s
H 2023    22                       0.9561428    0.87376  8.62%   692 13280s
H 2023    20                       0.9561405    0.87376  8.62%   692 13280s
  2024    20    0.95502  124 3071    0.95614    0.87376  8.62%   692 13297s
  2025    21    0.95614   24 3226    0.95614    0.87376  8.62%   692 13393s
H 2025    20                       0.9561260    0.87377  8.61%   692 13576s
  2026    21    0.95613   63 3223    0.95613    0.87377  8.61%   691 13587s
  2027    21    0.93472   31 3967    0.95613    0.87378  8.61%   691 13742s
  2028    22    0.95613  110 2833    0.95613    0.87380  8.61%   691 13960s
  2029    23    0.95613   23 4228    0.95613    0.87380  8.61%   690 14114s
  2030    23    0.95613  106 3368    0.95613    0.87382  8.61%   690 14256s

Cutting planes:
  Gomory: 2116
  Lift-and-project: 68
  Cover: 696
  Implied bound: 890
  Projected implied bound: 5
  Clique: 204
  MIR: 644
  Mixing: 1
  StrongCG: 121
  Flow cover: 3338
  GUB cover: 15
  Zero half: 2212
  RLT: 132
  Relax-and-lift: 764

Explored 2030 nodes (1973580 simplex iterations) in 14400.90 seconds (14338.07 work units)
Thread count was 12 (of 12 available processors)

Solution count 10: 0.956126 0.95614 0.956143 ... 0.976454

Time limit reached
Best objective 9.561260417301e-01, best bound 8.738232390147e-01, gap 8.6079%
Objective Function at this solution: [[0, 1, 4], [1, 2, 2], [1, 2, 4], [1, 2, 21], [1, 136, 22], [2, 3, 2], [2, 3, 4], [2, 3, 21], [3, 4, 4], [3, 4, 21], [3, 116, 2], [4, 5, 4], [4, 5, 21], [5, 6, 4], [5, 6, 21], [5, 18, 11], [6, 5, 11], [6, 7, 4], [6, 30, 7], [6, 30, 21], [7, 6, 11], [7, 8, 4], [8, 7, 11], [8, 9, 4], [9, 10, 4], [9, 17, 11], [9, 239, 18], [10, 11, 4], [10, 16, 11], [11, 10, 11], [11, 12, 4], [12, 13, 4], [13, 14, 4], [13, 72, 11], [13, 72, 18], [14, 13, 11], [14, 15, 4], [15, 14, 11], [15, 66, 13], [16, 238, 11], [17, 8, 11], [18, 19, 11], [19, 20, 11], [20, 21, 11], [20, 21, 23], [22, 1, 22], [23, 24, 7], [23, 24, 18], [23, 83, 3], [23, 101, 6], [23, 101, 10], [23, 101, 12], [23, 101, 14], [23, 101, 15], [23, 101, 16], [23, 101, 19], [23, 101, 24], [23, 101, 25], [23, 101, 26], [24, 25, 7], [24, 25, 18], [25, 26, 7], [25, 26, 18], [26, 27, 7], [26, 43, 21], [26, 230, 18], [27, 26, 21], [27, 28, 7], [28, 27, 21], [28, 29, 7], [29, 6, 7], [30, 31, 7], [30, 31, 21], [31, 32, 7], [31, 32, 21], [32, 33, 7], [32, 41, 21], [33, 34, 7], [34, 35, 7], [35, 36, 7], [35, 36, 13], [35, 48, 9], [35, 48, 17], [36, 35, 9], [36, 35, 17], [36, 37, 7], [36, 37, 13], [37, 36, 9], [37, 36, 17], [37, 38, 7], [37, 38, 13], [38, 37, 9], [38, 37, 17], [40, 229, 23], [41, 42, 21], [42, 28, 21], [43, 44, 21], [44, 45, 21], [45, 46, 21], [46, 23, 21], [47, 1, 2], [48, 35, 13], [48, 49, 17], [48, 225, 9], [49, 50, 17], [50, 51, 17], [51, 52, 17], [52, 53, 17], [52, 227, 9], [53, 54, 17], [53, 226, 13], [54, 58, 17], [58, 53, 13], [58, 59, 17], [59, 60, 17], [59, 76, 13], [60, 61, 17], [61, 62, 17], [61, 75, 13], [62, 61, 13], [62, 63, 17], [63, 62, 13], [63, 64, 17], [64, 65, 17], [65, 66, 9], [65, 66, 17], [65, 74, 13], [66, 15, 9], [66, 15, 17], [66, 15, 18], [66, 65, 13], [67, 66, 18], [68, 67, 18], [69, 68, 18], [70, 71, 18], [71, 13, 18], [72, 73, 11], [72, 73, 18], [73, 69, 18], [73, 242, 11], [74, 63, 13], [75, 77, 13], [76, 58, 13], [77, 78, 13], [78, 79, 13], [79, 81, 13], [80, 59, 13], [81, 80, 13], [83, 84, 3], [84, 85, 3], [85, 86, 3], [86, 87, 3], [87, 88, 3], [88, 89, 3], [89, 90, 3], [90, 91, 3], [91, 92, 3], [92, 93, 3], [93, 94, 3], [94, 95, 3], [95, 96, 3], [96, 97, 3], [96, 103, 19], [97, 98, 3], [98, 99, 3], [98, 102, 19], [99, 100, 3], [100, 23, 3], [100, 98, 19], [101, 100, 19], [101, 245, 6], [101, 245, 10], [101, 245, 12], [101, 245, 14], [101, 245, 15], [101, 245, 16], [101, 245, 24], [101, 245, 25], [101, 245, 26], [102, 96, 19], [103, 104, 19], [104, 105, 19], [105, 106, 19], [106, 107, 19], [107, 108, 8], [108, 107, 6], [108, 107, 10], [108, 107, 12], [108, 107, 14], [108, 107, 15], [108, 107, 16], [108, 107, 24], [108, 107, 25], [108, 107, 26], [108, 109, 8], [109, 108, 6], [109, 108, 10], [109, 108, 12], [109, 108, 14], [109, 108, 15], [109, 108, 16], [109, 108, 24], [109, 108, 25], [109, 108, 26], [109, 110, 8], [110, 109, 6], [110, 109, 10], [110, 109, 12], [110, 109, 14], [110, 109, 15], [110, 109, 16], [110, 109, 24], [110, 109, 25], [110, 109, 26], [110, 111, 8], [111, 110, 6], [111, 110, 10], [111, 110, 12], [111, 110, 14], [111, 110, 15], [111, 110, 16], [111, 110, 24], [111, 110, 25], [111, 110, 26], [111, 112, 8], [112, 111, 6], [112, 111, 10], [112, 111, 12], [112, 111, 14], [112, 111, 15], [112, 111, 16], [112, 111, 24], [112, 111, 25], [112, 111, 26], [112, 113, 8], [113, 114, 8], [114, 115, 8], [115, 23, 8], [116, 20, 23], [116, 117, 2], [117, 116, 23], [117, 118, 2], [118, 117, 23], [118, 119, 2], [119, 118, 23], [119, 120, 2], [120, 121, 2], [121, 122, 2], [121, 134, 23], [122, 128, 23], [122, 221, 2], [122, 222, 1], [123, 122, 23], [123, 126, 1], [124, 123, 1], [124, 125, 23], [125, 123, 23], [126, 127, 23], [126, 224, 1], [127, 124, 23], [128, 121, 23], [134, 135, 23], [135, 119, 23], [136, 192, 22], [137, 138, 20], [138, 137, 22], [138, 139, 20], [139, 138, 22], [139, 140, 20], [140, 139, 22], [140, 141, 20], [141, 142, 20], [141, 204, 22], [142, 143, 20], [142, 152, 5], [143, 142, 5], [143, 144, 20], [144, 145, 5], [144, 179, 20], [145, 146, 5], [146, 147, 5], [147, 148, 5], [148, 149, 5], [149, 150, 5], [150, 151, 5], [151, 143, 5], [152, 140, 22], [152, 203, 5], [179, 180, 20], [180, 181, 20], [181, 193, 20], [182, 189, 5], [183, 182, 5], [183, 184, 20], [184, 185, 20], [185, 186, 20], [185, 188, 5], [186, 185, 5], [186, 187, 20], [187, 186, 5], [188, 183, 5], [189, 190, 5], [190, 144, 5], [191, 1, 21], [192, 141, 22], [193, 194, 20], [194, 195, 20], [195, 196, 20], [196, 197, 20], [197, 198, 20], [198, 199, 20], [199, 200, 20], [200, 201, 20], [201, 202, 20], [202, 183, 20], [204, 152, 22], [216, 217, 1], [217, 216, 2], [217, 218, 1], [218, 217, 2], [218, 219, 1], [219, 218, 2], [219, 220, 1], [220, 219, 2], [220, 221, 1], [221, 122, 1], [221, 220, 2], [222, 223, 1], [223, 124, 1], [224, 40, 1], [225, 48, 13], [225, 226, 9], [226, 52, 9], [226, 225, 13], [227, 228, 9], [228, 65, 9], [229, 126, 23], [230, 231, 18], [231, 232, 18], [232, 233, 18], [233, 234, 18], [234, 235, 18], [235, 236, 18], [236, 237, 18], [237, 238, 18], [238, 9, 11], [238, 9, 18], [239, 240, 18], [240, 241, 18], [241, 70, 18], [242, 243, 11], [243, 244, 11], [244, 11, 11], [245, 246, 6], [245, 246, 10], [245, 246, 12], [245, 246, 14], [245, 246, 15], [245, 246, 16], [245, 246, 24], [245, 246, 25], [245, 246, 26], [246, 112, 6], [246, 112, 10], [246, 112, 12], [246, 112, 14], [246, 112, 15], [246, 112, 16], [246, 112, 24], [246, 112, 25], [246, 112, 26]]
List of All Routes is {'Route_1': [216, 217, 218, 219, 220, 221, 122, 222, 223, 124, 123, 126, 224, 40], 'Route_1_1': [40, 224, 126, 123, 124, 223, 222, 122, 221, 220, 219, 218, 217, 216], 'Route_2': [47, 1, 2, 3, 116, 117, 118, 119, 120, 121, 122, 221, 220, 219, 218, 217, 216], 'Route_2_1': [216, 217, 218, 219, 220, 221, 122, 121, 120, 119, 118, 117, 116, 3, 2, 1, 47], 'Route_3': [23, 83, 84, 85, 86, 87, 88, 89, 90, 91, 92, 93, 94, 95, 96, 97, 98, 99, 100, 23], 'Route_4': [0, 1, 2, 3, 4, 5, 6, 7, 8, 9, 10, 11, 12, 13, 14, 15], 'Route_4_1': [15, 14, 13, 12, 11, 10, 9, 8, 7, 6, 5, 4, 3, 2, 1, 0], 'Route_5': [187, 186, 185, 188, 183, 182, 189, 190, 144, 145, 146, 147, 148, 149, 150, 151, 143, 142, 152, 203], 'Route_5_1': [203, 152, 142, 143, 151, 150, 149, 148, 147, 146, 145, 144, 190, 189, 182, 183, 188, 185, 186, 187], 'Route_6': [23, 101, 245, 246, 112, 111, 110, 109, 108, 107], 'Route_6_1': [107, 108, 109, 110, 111, 112, 246, 245, 101, 23], 'Route_7': [23, 24, 25, 26, 27, 28, 29, 6, 30, 31, 32, 33, 34, 35, 36, 37, 38], 'Route_7_1': [38, 37, 36, 35, 34, 33, 32, 31, 30, 6, 29, 28, 27, 26, 25, 24, 23], 'Route_8': [107, 108, 109, 110, 111, 112, 113, 114, 115, 23], 'Route_8_1': [23, 115, 114, 113, 112, 111, 110, 109, 108, 107], 'Route_9': [38, 37, 36, 35, 48, 225, 226, 52, 227, 228, 65, 66, 15], 'Route_9_1': [15, 66, 65, 228, 227, 52, 226, 225, 48, 35, 36, 37, 38], 'Route_10': [23, 101, 245, 246, 112, 111, 110, 109, 108, 107], 'Route_10_1': [107, 108, 109, 110, 111, 112, 246, 245, 101, 23], 'Route_11': [15, 14, 13, 72, 73, 242, 243, 244, 11, 10, 16, 238, 9, 17, 8, 7, 6, 5, 18, 19, 20, 21], 'Route_11_1': [21, 20, 19, 18, 5, 6, 7, 8, 17, 9, 238, 16, 10, 11, 244, 243, 242, 73, 72, 13, 14, 15], 'Route_12': [23, 101, 245, 246, 112, 111, 110, 109, 108, 107], 'Route_12_1': [107, 108, 109, 110, 111, 112, 246, 245, 101, 23], 'Route_13': [15, 66, 65, 74, 63, 62, 61, 75, 77, 78, 79, 81, 80, 59, 76, 58, 53, 226, 225, 48, 35, 36, 37, 38], 'Route_13_1': [38, 37, 36, 35, 48, 225, 226, 53, 58, 76, 59, 80, 81, 79, 78, 77, 75, 61, 62, 63, 74, 65, 66, 15], 'Route_14': [23, 101, 245, 246, 112, 111, 110, 109, 108, 107], 'Route_14_1': [107, 108, 109, 110, 111, 112, 246, 245, 101, 23], 'Route_15': [23, 101, 245, 246, 112, 111, 110, 109, 108, 107], 'Route_15_1': [107, 108, 109, 110, 111, 112, 246, 245, 101, 23], 'Route_16': [23, 101, 245, 246, 112, 111, 110, 109, 108, 107], 'Route_16_1': [107, 108, 109, 110, 111, 112, 246, 245, 101, 23], 'Route_17': [38, 37, 36, 35, 48, 49, 50, 51, 52, 53, 54, 58, 59, 60, 61, 62, 63, 64, 65, 66, 15], 'Route_17_1': [15, 66, 65, 64, 63, 62, 61, 60, 59, 58, 54, 53, 52, 51, 50, 49, 48, 35, 36, 37, 38], 'Route_18': [23, 24, 25, 26, 230, 231, 232, 233, 234, 235, 236, 237, 238, 9, 239, 240, 241, 70, 71, 13, 72, 73, 69, 68, 67, 66, 15], 'Route_18_1': [15, 66, 67, 68, 69, 73, 72, 13, 71, 70, 241, 240, 239, 9, 238, 237, 236, 235, 234, 233, 232, 231, 230, 26, 25, 24, 23], 'Route_19': [23, 101, 100, 98, 102, 96, 103, 104, 105, 106, 107], 'Route_19_1': [107, 106, 105, 104, 103, 96, 102, 98, 100, 101, 23], 'Route_20': [137, 138, 139, 140, 141, 142, 143, 144, 179, 180, 181, 193, 194, 195, 196, 197, 198, 199, 200, 201, 202, 183, 184, 185, 186, 187], 'Route_20_1': [187, 186, 185, 184, 183, 202, 201, 200, 199, 198, 197, 196, 195, 194, 193, 181, 180, 179, 144, 143, 142, 141, 140, 139, 138, 137], 'Route_21': [191, 1, 2, 3, 4, 5, 6, 30, 31, 32, 41, 42, 28, 27, 26, 43, 44, 45, 46, 23], 'Route_21_1': [23, 46, 45, 44, 43, 26, 27, 28, 42, 41, 32, 31, 30, 6, 5, 4, 3, 2, 1, 191], 'Route_22': [22, 1, 136, 192, 141, 204, 152, 140, 139, 138, 137], 'Route_22_1': [137, 138, 139, 140, 152, 204, 141, 192, 136, 1, 22], 'Route_23': [40, 229, 126, 127, 124, 125, 123, 122, 128, 121, 134, 135, 119, 118, 117, 116, 20, 21], 'Route_23_1': [21, 20, 116, 117, 118, 119, 135, 134, 121, 128, 122, 123, 125, 124, 127, 126, 229, 40], 'Route_24': [23, 101, 245, 246, 112, 111, 110, 109, 108, 107], 'Route_24_1': [107, 108, 109, 110, 111, 112, 246, 245, 101, 23], 'Route_25': [23, 101, 245, 246, 112, 111, 110, 109, 108, 107], 'Route_25_1': [107, 108, 109, 110, 111, 112, 246, 245, 101, 23], 'Route_26': [23, 101, 245, 246, 112, 111, 110, 109, 108, 107], 'Route_26_1': [107, 108, 109, 110, 111, 112, 246, 245, 101, 23]}
